5 5
1 99 4 37 0 96 2 71 3 33
4 31 1 55 0 12 3 11 2 88
4 72 3 32 1 57 0 38 2 60
1 86 3 98 2 19 4 84 0 56
2 14 1 33 4 10 0 80 3 64
-1
0 2 4 5
0 3 4 5
0 3 4 5
0 2 5
0 1 2 3 5
-2
172 474 345
150 162 241
188 278 286
284 516
15 55 63 309

470 9
2 7 23 13 19
0 15 21 6 12
20 3 17 9 14
11 16 8 4 24
10 1 5 22 18
